* #variable= 12 #constraint= 38
*
* Synchronization bits problem
*
+1 x1 +1 x2 +1 x3 = 1;
+1 x7 +1 x9 +1 x11 +1 x7 +1 x9 +1 x11 +1 x7 +1 x9 +1 x11 +1 x7 +1 x9 +1 x11 +1 x7 +1 x9 +1 x11 >= 1;
+1 x8 +1 x10 +1 x12 +1 x8 +1 x10 +1 x12 +1 x8 +1 x10 +1 x12 +1 x8 +1 x10 +1 x12 +1 x8 +1 x10 +1 x12 >= 1;
+1 x9 +1 x11 +1 x7 +1 x9 +1 x11 +1 x7 +1 x9 +1 x11 +1 x7 +1 x9 +1 x11 +1 x7 +1 x9 +1 x11 +1 x7 >= 1;
+1 x10 +1 x12 +1 x8 +1 x10 +1 x12 +1 x8 +1 x10 +1 x12 +1 x8 +1 x10 +1 x12 +1 x8 +1 x10 +1 x12 +1 x8 >= 1;
+1 x11 +1 x7 +1 x9 +1 x11 +1 x7 +1 x9 +1 x11 +1 x7 +1 x9 +1 x11 +1 x7 +1 x9 +1 x11 +1 x7 +1 x9 >= 1;
+1 x12 +1 x8 +1 x10 +1 x12 +1 x8 +1 x10 +1 x12 +1 x8 +1 x10 +1 x12 +1 x8 +1 x10 +1 x12 +1 x8 +1 x10 >= 1;
+1 x7 -1 x1 <= 0;
+1 x7 -1 x2 <= 0;
+1 x8 -1 x1 <= 0;
+1 x8 -1 x3 <= 0;
+1 x9 -1 x2 <= 0;
+1 x9 -1 x3 <= 0;
+1 x10 -1 x2 <= 0;
+1 x10 -1 x1 <= 0;
+1 x11 -1 x3 <= 0;
+1 x11 -1 x1 <= 0;
+1 x12 -1 x3 <= 0;
+1 x12 -1 x2 <= 0;
-1 x7 -1 x4-1 x5 >= -2;
-1 x7 +1 x4 +1 x5 >= 0;
-1 x8 -1 x4-1 x6 >= -2;
-1 x8 +1 x4 +1 x6 >= 0;
-1 x9 -1 x5-1 x6 >= -2;
-1 x9 +1 x5 +1 x6 >= 0;
-1 x10 -1 x5-1 x4 >= -2;
-1 x10 +1 x5 +1 x4 >= 0;
-1 x11 -1 x6-1 x4 >= -2;
-1 x11 +1 x6 +1 x4 >= 0;
-1 x12 -1 x6-1 x5 >= -2;
-1 x12 +1 x6 +1 x5 >= 0;
+1 x1 = 1;
+1 x4 = 1;
+1 x7 = 1;
+1 x1 -1 x4 >= 0;
+1 x2 -1 x5 >= 0;
+1 x3 -1 x6 >= 0;
+1 x4 +1 x5 +1 x6  <= 0;
